(set-info :source |printed by MathSAT|)
(declare-fun call__main_.call_hypothese.flby2 () Int)
(declare-fun call__main_.flby3 () Int)
(declare-fun call__main_.diff1 () Int)
(declare-fun flby () Bool)
(declare-fun nB0 () Int)
(declare-fun call__main_.nB1 () Int)
(declare-fun call_Sofar.Sofar () Bool)
(declare-fun call__main_.ast () Bool)
(declare-fun call__main_.avance1 () Bool)
(declare-fun call__main_.call_hypothese.c () Int)
(declare-fun call__main_.call_controleur.avance () Bool)
(declare-fun retard0 () Bool)
(declare-fun avance0 () Bool)
(declare-fun call__main_.nS () Int)
(declare-fun call__main_.call_hypothese2.ok () Bool)
(declare-fun call__main_.call_controleur.retard () Bool)
(declare-fun call__main_.call_controleur.flby2 () Bool)
(declare-fun call__main_.call_controleur.flby () Bool)
(declare-fun call__main_.call_hypothese2.flby2 () Int)
(declare-fun call__main_.call_hypothese2.c () Int)
(declare-fun call__main_.flby2 () Int)
(declare-fun call__main_.call_controleur2.flby () Bool)
(declare-fun call__main_._H0_ () Bool)
(declare-fun call__main_.retard0 () Bool)
(declare-fun call__main_.call_hypothese.flby () Bool)
(declare-fun ast () Bool)
(declare-fun retard1 () Bool)
(declare-fun call__main_.diff0 () Int)
(declare-fun call__main_.avance0 () Bool)
(declare-fun nS () Int)
(declare-fun call__main_.call_hypothese2.flby () Bool)
(declare-fun call__main_.flby () Int)
(declare-fun call__main_.call_controleur2.flby2 () Bool)
(declare-fun call__main_.retard1 () Bool)
(declare-fun call__main_.nB0 () Int)
(declare-fun call__main_._H1_ () Bool)
(declare-fun call__main_.call_controleur2.diff () Int)
(declare-fun diff0 () Int)
(declare-fun call__main_.call_controleur.diff () Int)
(declare-fun nB1 () Int)
(declare-fun call__main_.call_controleur2.avance () Bool)
(declare-fun call__main_.call_hypothese.ok () Bool)
(declare-fun _OK_ () Bool)
(declare-fun diff1 () Int)
(declare-fun avance1 () Bool)
(declare-fun call_Sofar.flby () Bool)
(declare-fun call__main_.call_controleur2.retard () Bool)
(define-fun .def_624 () Bool (= call_Sofar.flby call_Sofar.Sofar))
(define-fun .def_621 () Bool (= call__main_.call_controleur2.flby2 call__main_.call_controleur2.retard))
(define-fun .def_619 () Bool (= call__main_.call_controleur2.flby call__main_.call_controleur2.avance))
(define-fun .def_614 () Int (* (- 1) call__main_.call_controleur2.diff))
(define-fun .def_602 () Int (* (- 1) call__main_.nS))
(define-fun .def_615 () Int (+ .def_602 .def_614))
(define-fun .def_616 () Int (+ call__main_.nB1 .def_615))
(define-fun .def_617 () Bool (= .def_616 0))
(define-fun .def_609 () Bool (= call__main_.call_controleur.flby2 call__main_.call_controleur.retard))
(define-fun .def_607 () Bool (= call__main_.call_controleur.flby call__main_.call_controleur.avance))
(define-fun .def_601 () Int (* (- 1) call__main_.call_controleur.diff))
(define-fun .def_603 () Int (+ .def_602 .def_601))
(define-fun .def_604 () Int (+ call__main_.nB0 .def_603))
(define-fun .def_605 () Bool (= .def_604 0))
(define-fun .def_596 () Bool (= call__main_.call_hypothese2.flby2 call__main_.call_hypothese2.c))
(define-fun .def_593 () Bool (= call__main_.call_hypothese2.flby call__main_.call_hypothese2.ok))
(define-fun .def_591 () Bool (= call__main_.call_hypothese.flby2 call__main_.call_hypothese.c))
(define-fun .def_588 () Bool (= call__main_.call_hypothese.flby call__main_.call_hypothese.ok))
(define-fun .def_586 () Bool (= call__main_._H1_ call__main_.call_hypothese2.ok))
(define-fun .def_583 () Bool (= call__main_._H0_ call__main_.call_hypothese.ok))
(define-fun .def_580 () Bool (= call__main_.retard1 call__main_.call_controleur2.retard))
(define-fun .def_577 () Bool (= call__main_.retard0 call__main_.call_controleur.retard))
(define-fun .def_574 () Bool (= call__main_.avance1 call__main_.call_controleur2.avance))
(define-fun .def_571 () Bool (= call__main_.avance0 call__main_.call_controleur.avance))
(define-fun .def_568 () Bool (= call__main_.diff1 call__main_.call_controleur2.diff))
(define-fun .def_565 () Bool (= call__main_.diff0 call__main_.call_controleur.diff))
(define-fun .def_562 () Bool (= call__main_.flby3 call__main_.nS))
(define-fun .def_560 () Bool (= call__main_.flby2 call__main_.nB1))
(define-fun .def_558 () Bool (= call__main_.flby call__main_.nB0))
(define-fun .def_555 () Bool (and call__main_._H0_ call__main_._H1_))
(define-fun .def_556 () Bool (= call__main_.ast .def_555))
(define-fun .def_551 () Bool (= ast call__main_.ast))
(define-fun .def_548 () Bool (= retard1 call__main_.retard1))
(define-fun .def_544 () Bool (= retard0 call__main_.retard0))
(define-fun .def_540 () Bool (= avance1 call__main_.avance1))
(define-fun .def_536 () Bool (= avance0 call__main_.avance0))
(define-fun .def_532 () Bool (= diff1 call__main_.diff1))
(define-fun .def_528 () Bool (= diff0 call__main_.diff0))
(define-fun .def_524 () Bool (= nS call__main_.nS))
(define-fun .def_520 () Bool (= nB1 call__main_.nB1))
(define-fun .def_516 () Bool (= nB0 call__main_.nB0))
(define-fun .def_513 () Bool (= flby _OK_))
(define-fun .def_517 () Bool (and .def_513 .def_516))
(define-fun .def_521 () Bool (and .def_517 .def_520))
(define-fun .def_525 () Bool (and .def_521 .def_524))
(define-fun .def_529 () Bool (and .def_525 .def_528))
(define-fun .def_533 () Bool (and .def_529 .def_532))
(define-fun .def_537 () Bool (and .def_533 .def_536))
(define-fun .def_541 () Bool (and .def_537 .def_540))
(define-fun .def_545 () Bool (and .def_541 .def_544))
(define-fun .def_549 () Bool (and .def_545 .def_548))
(define-fun .def_552 () Bool (and .def_549 .def_551))
(define-fun .def_557 () Bool (and .def_552 .def_556))
(define-fun .def_559 () Bool (and .def_557 .def_558))
(define-fun .def_561 () Bool (and .def_559 .def_560))
(define-fun .def_563 () Bool (and .def_561 .def_562))
(define-fun .def_566 () Bool (and .def_563 .def_565))
(define-fun .def_569 () Bool (and .def_566 .def_568))
(define-fun .def_572 () Bool (and .def_569 .def_571))
(define-fun .def_575 () Bool (and .def_572 .def_574))
(define-fun .def_578 () Bool (and .def_575 .def_577))
(define-fun .def_581 () Bool (and .def_578 .def_580))
(define-fun .def_584 () Bool (and .def_581 .def_583))
(define-fun .def_587 () Bool (and .def_584 .def_586))
(define-fun .def_589 () Bool (and .def_587 .def_588))
(define-fun .def_592 () Bool (and .def_589 .def_591))
(define-fun .def_594 () Bool (and .def_592 .def_593))
(define-fun .def_597 () Bool (and .def_594 .def_596))
(define-fun .def_606 () Bool (and .def_597 .def_605))
(define-fun .def_608 () Bool (and .def_606 .def_607))
(define-fun .def_610 () Bool (and .def_608 .def_609))
(define-fun .def_618 () Bool (and .def_610 .def_617))
(define-fun .def_620 () Bool (and .def_618 .def_619))
(define-fun .def_622 () Bool (and .def_620 .def_621))
(define-fun .def_625 () Bool (and .def_622 .def_624))
(define-fun .def_510 () Bool (= ast call_Sofar.flby))
(define-fun .def_506 () Bool (not call__main_.call_controleur2.flby2))
(define-fun .def_503 () Bool (not call__main_.call_controleur2.flby))
(define-fun .def_500 () Bool (not call__main_.call_controleur.flby2))
(define-fun .def_497 () Bool (not call__main_.call_controleur.flby))
(define-fun .def_494 () Bool (= call__main_.call_hypothese2.flby2 0))
(define-fun .def_489 () Bool (= call__main_.call_hypothese.flby2 0))
(define-fun .def_484 () Bool (= call__main_.flby3 0))
(define-fun .def_481 () Bool (= call__main_.flby2 0))
(define-fun .def_477 () Bool (= call__main_.flby 0))
(define-fun .def_479 () Bool (and .def_477 flby))
(define-fun .def_482 () Bool (and .def_479 .def_481))
(define-fun .def_485 () Bool (and .def_482 .def_484))
(define-fun .def_487 () Bool (and .def_485 call__main_.call_hypothese.flby))
(define-fun .def_490 () Bool (and .def_487 .def_489))
(define-fun .def_492 () Bool (and .def_490 call__main_.call_hypothese2.flby))
(define-fun .def_495 () Bool (and .def_492 .def_494))
(define-fun .def_498 () Bool (and .def_495 .def_497))
(define-fun .def_501 () Bool (and .def_498 .def_500))
(define-fun .def_504 () Bool (and .def_501 .def_503))
(define-fun .def_507 () Bool (and .def_504 .def_506))
(define-fun .def_511 () Bool (and .def_507 .def_510))
(define-fun .def_626 () Bool (and .def_511 .def_625))
(assert .def_626)
